phonons on a grid 
 &inputph 
  nq1 = 4, 
  nq2 = 2, 
  nq3 = 2, 
  fildyn = 'si.dyn', 
  tr2_ph = 1e-14, 
  prefix = 'si', 
  trans = .true., 
  electron_phonon = 'dvscf', 
  fildvscf = 'dvscf', 
  ldisp = .true., 
  reduce_io = .true.
/ 
