phonons on a grid 
 &inputph 
  nq1 = 3, 
  nq2 = 3, 
  nq3 = 2, 
  fildyn = 'hBN.dyn', 
  tr2_ph = 1e-14, 
  prefix = 'hBN', 
  trans = .true., 
  electron_phonon = 'dvscf', 
  fildvscf = 'dvscf', 
  ldisp = .true., 
  reduce_io = .true.
/ 
