&control
  calculation = 'scf'
  outdir = '.'
  prefix = 'hBN'
  pseudo_dir = '../../pseudos_dojo'
  verbosity = 'high'
  nstep = 20000
/&end
&system
  ecutwfc = 80 
  ibrav = 0
  nat = 4
  ntyp = 2
  occupations = 'fixed'
/&end
&electrons
            conv_thr = 1e-12
/&end
&IONS
/
&cell
  cell_dynamics = "bfgs"
/
ATOMIC_SPECIES
B       10.811   B.upf
N       14.0067  N.upf
ATOMIC_POSITIONS crystal
B            0.6666666667       0.3333333333       0.7500000000 
B            0.3333333333       0.6666666667       0.2500000000 
N            0.6666666667       0.3333333333       0.2500000000 
N            0.3333333333       0.6666666667       0.7500000000 
CELL_PARAMETERS angstrom
      2.5124282281       0.0000000000       0.0000000000
     -1.2562141141       2.1758266707       0.0000000000
      0.0000000000       0.0000000000       7.7072650000
K_POINTS automatic
12 12 3 0 0 0
