&CONTROL
  prefix = 'si'
  pseudo_dir = '..'
  calculation = 'nscf'
  outdir = '.'
  verbosity = 'high'
  nstep = 20000
/
&SYSTEM
               ibrav = 0
                 nat = 2
                ntyp = 1
             ecutwfc = 40.0
 	     celldm(1) = 10.3346008116 
             occupations = 'fixed'
             nbnd = 10
             force_symmorphic = .true.
/
&ELECTRONS
  conv_thr =   1.0000000000d-12
  electron_maxstep = 1000
/&end
&IONS
/
&cell
  cell_dynamics = "bfgs"
/
ATOMIC_SPECIES
   Si     28.085    Si.upf
CELL_PARAMETERS (alat)
  -0.500000000   0.000000000   0.500000000
   0.000000000   0.500000000   0.500000000
  -0.500000000   0.500000000   0.000000000

ATOMIC_POSITIONS (crystal)
Si               0.0000000000        0.0000000000        0.0000000000
Si              -0.2500000000       -0.2500000000       -0.2500000000
K_POINTS automatic
    4  4  4  0  0  0

