phonons on a grid 
 &inputph 
  nq1 = 2, 
  nq2 = 2, 
  nq3 = 2, 
  fildyn = 'NiO.dyn', 
  tr2_ph = 1e-15, 
  prefix = 'NiO', 
  trans = .false.,
  electron_phonon = 'yambo', 
  fildvscf = 'dvscf', 
  ldisp = .true., 
  reduce_io = .true.
/ 
