phonons on a grid 
 &inputph 
  nq1 = 4, 
  nq2 = 4, 
  nq3 = 4, 
  fildyn = 'si.dyn', 
  tr2_ph = 1e-16, 
  prefix = 'si', 
  trans = .true., 
  electron_phonon = 'dvscf', 
  fildvscf = 'dvscf', 
  ldisp = .true., 
  !lraman = .true.
  alpha_mix(1) = 0.5, 
  reduce_io = .true.
/ 
