phonons on a grid 
 &inputph 
  nq1 = 3, 
  nq2 = 3, 
  nq3 = 1, 
  fildyn = 'mos2.dyn', 
  tr2_ph = 1e-16, 
  prefix = 'mos2', 
  trans = .false., 
  electron_phonon = 'yambo',
  fildvscf = 'dvscf', 
  ldisp = .true., 
  !lraman = .true.
  alpha_mix(1) = 0.5, 
  reduce_io = .true.
/ 
